c A temporal KB for measuring ID
p wcnf 1100 1020 22
21 1 81 0
21 -1 3 0
21 -1 -4 0
21 -81 3 0
21 -81 4 0
21 5 82 0
21 -5 7 0
21 -5 -8 0
21 -82 7 0
21 -82 8 0
21 9 83 0
21 -9 11 0
21 -9 -12 0
21 -83 11 0
21 -83 12 0
21 13 84 0
21 -13 15 0
21 -13 -16 0
21 -84 15 0
21 -84 16 0
21 17 85 0
21 -17 19 0
21 -17 -20 0
21 -85 19 0
21 -85 20 0
21 21 86 0
21 -21 23 0
21 -21 -24 0
21 -86 23 0
21 -86 24 0
21 25 87 0
21 -25 27 0
21 -25 -28 0
21 -87 27 0
21 -87 28 0
21 29 88 0
21 -29 31 0
21 -29 -32 0
21 -88 31 0
21 -88 32 0
21 33 89 0
21 -33 35 0
21 -33 -36 0
21 -89 35 0
21 -89 36 0
21 37 90 0
21 -37 39 0
21 -37 -40 0
21 -90 39 0
21 -90 40 0
21 41 91 0
21 -41 43 0
21 -41 -44 0
21 -91 43 0
21 -91 44 0
21 45 92 0
21 -45 47 0
21 -45 -48 0
21 -92 47 0
21 -92 48 0
21 49 93 0
21 -49 51 0
21 -49 -52 0
21 -93 51 0
21 -93 52 0
21 53 94 0
21 -53 55 0
21 -53 -56 0
21 -94 55 0
21 -94 56 0
21 57 95 0
21 -57 59 0
21 -57 -60 0
21 -95 59 0
21 -95 60 0
21 61 96 0
21 -61 63 0
21 -61 -64 0
21 -96 63 0
21 -96 64 0
21 65 97 0
21 -65 67 0
21 -65 -68 0
21 -97 67 0
21 -97 68 0
21 69 98 0
21 -69 71 0
21 -69 -72 0
21 -98 71 0
21 -98 72 0
21 73 99 0
21 -73 75 0
21 -73 -76 0
21 -99 75 0
21 -99 76 0
21 77 100 0
21 -77 79 0
21 -77 -80 0
21 -100 79 0
21 -100 80 0
21 2 42 101 0
21 -2 4 0
21 -2 -3 0
21 -101 4 0
21 -101 3 0
21 -42 44 0
21 -42 -43 0
21 -101 44 0
21 -101 43 0
21 2 46 102 0
21 -2 4 0
21 -2 -3 0
21 -102 4 0
21 -102 3 0
21 -46 48 0
21 -46 -47 0
21 -102 48 0
21 -102 47 0
21 2 50 103 0
21 -2 4 0
21 -2 -3 0
21 -103 4 0
21 -103 3 0
21 -50 52 0
21 -50 -51 0
21 -103 52 0
21 -103 51 0
21 2 54 104 0
21 -2 4 0
21 -2 -3 0
21 -104 4 0
21 -104 3 0
21 -54 56 0
21 -54 -55 0
21 -104 56 0
21 -104 55 0
21 2 58 105 0
21 -2 4 0
21 -2 -3 0
21 -105 4 0
21 -105 3 0
21 -58 60 0
21 -58 -59 0
21 -105 60 0
21 -105 59 0
21 2 62 106 0
21 -2 4 0
21 -2 -3 0
21 -106 4 0
21 -106 3 0
21 -62 64 0
21 -62 -63 0
21 -106 64 0
21 -106 63 0
21 2 66 107 0
21 -2 4 0
21 -2 -3 0
21 -107 4 0
21 -107 3 0
21 -66 68 0
21 -66 -67 0
21 -107 68 0
21 -107 67 0
21 2 70 108 0
21 -2 4 0
21 -2 -3 0
21 -108 4 0
21 -108 3 0
21 -70 72 0
21 -70 -71 0
21 -108 72 0
21 -108 71 0
21 2 74 109 0
21 -2 4 0
21 -2 -3 0
21 -109 4 0
21 -109 3 0
21 -74 76 0
21 -74 -75 0
21 -109 76 0
21 -109 75 0
21 2 78 110 0
21 -2 4 0
21 -2 -3 0
21 -110 4 0
21 -110 3 0
21 -78 80 0
21 -78 -79 0
21 -110 80 0
21 -110 79 0
21 6 42 111 0
21 -6 8 0
21 -6 -7 0
21 -111 8 0
21 -111 7 0
21 -42 44 0
21 -42 -43 0
21 -111 44 0
21 -111 43 0
21 6 46 112 0
21 -6 8 0
21 -6 -7 0
21 -112 8 0
21 -112 7 0
21 -46 48 0
21 -46 -47 0
21 -112 48 0
21 -112 47 0
21 6 50 113 0
21 -6 8 0
21 -6 -7 0
21 -113 8 0
21 -113 7 0
21 -50 52 0
21 -50 -51 0
21 -113 52 0
21 -113 51 0
21 6 54 114 0
21 -6 8 0
21 -6 -7 0
21 -114 8 0
21 -114 7 0
21 -54 56 0
21 -54 -55 0
21 -114 56 0
21 -114 55 0
21 6 58 115 0
21 -6 8 0
21 -6 -7 0
21 -115 8 0
21 -115 7 0
21 -58 60 0
21 -58 -59 0
21 -115 60 0
21 -115 59 0
21 6 62 116 0
21 -6 8 0
21 -6 -7 0
21 -116 8 0
21 -116 7 0
21 -62 64 0
21 -62 -63 0
21 -116 64 0
21 -116 63 0
21 6 66 117 0
21 -6 8 0
21 -6 -7 0
21 -117 8 0
21 -117 7 0
21 -66 68 0
21 -66 -67 0
21 -117 68 0
21 -117 67 0
21 6 70 118 0
21 -6 8 0
21 -6 -7 0
21 -118 8 0
21 -118 7 0
21 -70 72 0
21 -70 -71 0
21 -118 72 0
21 -118 71 0
21 6 74 119 0
21 -6 8 0
21 -6 -7 0
21 -119 8 0
21 -119 7 0
21 -74 76 0
21 -74 -75 0
21 -119 76 0
21 -119 75 0
21 6 78 120 0
21 -6 8 0
21 -6 -7 0
21 -120 8 0
21 -120 7 0
21 -78 80 0
21 -78 -79 0
21 -120 80 0
21 -120 79 0
21 10 42 121 0
21 -10 12 0
21 -10 -11 0
21 -121 12 0
21 -121 11 0
21 -42 44 0
21 -42 -43 0
21 -121 44 0
21 -121 43 0
21 10 46 122 0
21 -10 12 0
21 -10 -11 0
21 -122 12 0
21 -122 11 0
21 -46 48 0
21 -46 -47 0
21 -122 48 0
21 -122 47 0
21 10 50 123 0
21 -10 12 0
21 -10 -11 0
21 -123 12 0
21 -123 11 0
21 -50 52 0
21 -50 -51 0
21 -123 52 0
21 -123 51 0
21 10 54 124 0
21 -10 12 0
21 -10 -11 0
21 -124 12 0
21 -124 11 0
21 -54 56 0
21 -54 -55 0
21 -124 56 0
21 -124 55 0
21 10 58 125 0
21 -10 12 0
21 -10 -11 0
21 -125 12 0
21 -125 11 0
21 -58 60 0
21 -58 -59 0
21 -125 60 0
21 -125 59 0
21 10 62 126 0
21 -10 12 0
21 -10 -11 0
21 -126 12 0
21 -126 11 0
21 -62 64 0
21 -62 -63 0
21 -126 64 0
21 -126 63 0
21 10 66 127 0
21 -10 12 0
21 -10 -11 0
21 -127 12 0
21 -127 11 0
21 -66 68 0
21 -66 -67 0
21 -127 68 0
21 -127 67 0
21 10 70 128 0
21 -10 12 0
21 -10 -11 0
21 -128 12 0
21 -128 11 0
21 -70 72 0
21 -70 -71 0
21 -128 72 0
21 -128 71 0
21 10 74 129 0
21 -10 12 0
21 -10 -11 0
21 -129 12 0
21 -129 11 0
21 -74 76 0
21 -74 -75 0
21 -129 76 0
21 -129 75 0
21 10 78 130 0
21 -10 12 0
21 -10 -11 0
21 -130 12 0
21 -130 11 0
21 -78 80 0
21 -78 -79 0
21 -130 80 0
21 -130 79 0
21 14 42 131 0
21 -14 16 0
21 -14 -15 0
21 -131 16 0
21 -131 15 0
21 -42 44 0
21 -42 -43 0
21 -131 44 0
21 -131 43 0
21 14 46 132 0
21 -14 16 0
21 -14 -15 0
21 -132 16 0
21 -132 15 0
21 -46 48 0
21 -46 -47 0
21 -132 48 0
21 -132 47 0
21 14 50 133 0
21 -14 16 0
21 -14 -15 0
21 -133 16 0
21 -133 15 0
21 -50 52 0
21 -50 -51 0
21 -133 52 0
21 -133 51 0
21 14 54 134 0
21 -14 16 0
21 -14 -15 0
21 -134 16 0
21 -134 15 0
21 -54 56 0
21 -54 -55 0
21 -134 56 0
21 -134 55 0
21 14 58 135 0
21 -14 16 0
21 -14 -15 0
21 -135 16 0
21 -135 15 0
21 -58 60 0
21 -58 -59 0
21 -135 60 0
21 -135 59 0
21 14 62 136 0
21 -14 16 0
21 -14 -15 0
21 -136 16 0
21 -136 15 0
21 -62 64 0
21 -62 -63 0
21 -136 64 0
21 -136 63 0
21 14 66 137 0
21 -14 16 0
21 -14 -15 0
21 -137 16 0
21 -137 15 0
21 -66 68 0
21 -66 -67 0
21 -137 68 0
21 -137 67 0
21 14 70 138 0
21 -14 16 0
21 -14 -15 0
21 -138 16 0
21 -138 15 0
21 -70 72 0
21 -70 -71 0
21 -138 72 0
21 -138 71 0
21 14 74 139 0
21 -14 16 0
21 -14 -15 0
21 -139 16 0
21 -139 15 0
21 -74 76 0
21 -74 -75 0
21 -139 76 0
21 -139 75 0
21 14 78 140 0
21 -14 16 0
21 -14 -15 0
21 -140 16 0
21 -140 15 0
21 -78 80 0
21 -78 -79 0
21 -140 80 0
21 -140 79 0
21 18 42 141 0
21 -18 20 0
21 -18 -19 0
21 -141 20 0
21 -141 19 0
21 -42 44 0
21 -42 -43 0
21 -141 44 0
21 -141 43 0
21 18 46 142 0
21 -18 20 0
21 -18 -19 0
21 -142 20 0
21 -142 19 0
21 -46 48 0
21 -46 -47 0
21 -142 48 0
21 -142 47 0
21 18 50 143 0
21 -18 20 0
21 -18 -19 0
21 -143 20 0
21 -143 19 0
21 -50 52 0
21 -50 -51 0
21 -143 52 0
21 -143 51 0
21 18 54 144 0
21 -18 20 0
21 -18 -19 0
21 -144 20 0
21 -144 19 0
21 -54 56 0
21 -54 -55 0
21 -144 56 0
21 -144 55 0
21 18 58 145 0
21 -18 20 0
21 -18 -19 0
21 -145 20 0
21 -145 19 0
21 -58 60 0
21 -58 -59 0
21 -145 60 0
21 -145 59 0
21 18 62 146 0
21 -18 20 0
21 -18 -19 0
21 -146 20 0
21 -146 19 0
21 -62 64 0
21 -62 -63 0
21 -146 64 0
21 -146 63 0
21 18 66 147 0
21 -18 20 0
21 -18 -19 0
21 -147 20 0
21 -147 19 0
21 -66 68 0
21 -66 -67 0
21 -147 68 0
21 -147 67 0
21 18 70 148 0
21 -18 20 0
21 -18 -19 0
21 -148 20 0
21 -148 19 0
21 -70 72 0
21 -70 -71 0
21 -148 72 0
21 -148 71 0
21 18 74 149 0
21 -18 20 0
21 -18 -19 0
21 -149 20 0
21 -149 19 0
21 -74 76 0
21 -74 -75 0
21 -149 76 0
21 -149 75 0
21 18 78 150 0
21 -18 20 0
21 -18 -19 0
21 -150 20 0
21 -150 19 0
21 -78 80 0
21 -78 -79 0
21 -150 80 0
21 -150 79 0
21 22 42 151 0
21 -22 24 0
21 -22 -23 0
21 -151 24 0
21 -151 23 0
21 -42 44 0
21 -42 -43 0
21 -151 44 0
21 -151 43 0
21 22 46 152 0
21 -22 24 0
21 -22 -23 0
21 -152 24 0
21 -152 23 0
21 -46 48 0
21 -46 -47 0
21 -152 48 0
21 -152 47 0
21 22 50 153 0
21 -22 24 0
21 -22 -23 0
21 -153 24 0
21 -153 23 0
21 -50 52 0
21 -50 -51 0
21 -153 52 0
21 -153 51 0
21 22 54 154 0
21 -22 24 0
21 -22 -23 0
21 -154 24 0
21 -154 23 0
21 -54 56 0
21 -54 -55 0
21 -154 56 0
21 -154 55 0
21 22 58 155 0
21 -22 24 0
21 -22 -23 0
21 -155 24 0
21 -155 23 0
21 -58 60 0
21 -58 -59 0
21 -155 60 0
21 -155 59 0
21 22 62 156 0
21 -22 24 0
21 -22 -23 0
21 -156 24 0
21 -156 23 0
21 -62 64 0
21 -62 -63 0
21 -156 64 0
21 -156 63 0
21 22 66 157 0
21 -22 24 0
21 -22 -23 0
21 -157 24 0
21 -157 23 0
21 -66 68 0
21 -66 -67 0
21 -157 68 0
21 -157 67 0
21 22 70 158 0
21 -22 24 0
21 -22 -23 0
21 -158 24 0
21 -158 23 0
21 -70 72 0
21 -70 -71 0
21 -158 72 0
21 -158 71 0
21 22 74 159 0
21 -22 24 0
21 -22 -23 0
21 -159 24 0
21 -159 23 0
21 -74 76 0
21 -74 -75 0
21 -159 76 0
21 -159 75 0
21 22 78 160 0
21 -22 24 0
21 -22 -23 0
21 -160 24 0
21 -160 23 0
21 -78 80 0
21 -78 -79 0
21 -160 80 0
21 -160 79 0
21 26 42 161 0
21 -26 28 0
21 -26 -27 0
21 -161 28 0
21 -161 27 0
21 -42 44 0
21 -42 -43 0
21 -161 44 0
21 -161 43 0
21 26 46 162 0
21 -26 28 0
21 -26 -27 0
21 -162 28 0
21 -162 27 0
21 -46 48 0
21 -46 -47 0
21 -162 48 0
21 -162 47 0
21 26 50 163 0
21 -26 28 0
21 -26 -27 0
21 -163 28 0
21 -163 27 0
21 -50 52 0
21 -50 -51 0
21 -163 52 0
21 -163 51 0
21 26 54 164 0
21 -26 28 0
21 -26 -27 0
21 -164 28 0
21 -164 27 0
21 -54 56 0
21 -54 -55 0
21 -164 56 0
21 -164 55 0
21 26 58 165 0
21 -26 28 0
21 -26 -27 0
21 -165 28 0
21 -165 27 0
21 -58 60 0
21 -58 -59 0
21 -165 60 0
21 -165 59 0
21 26 62 166 0
21 -26 28 0
21 -26 -27 0
21 -166 28 0
21 -166 27 0
21 -62 64 0
21 -62 -63 0
21 -166 64 0
21 -166 63 0
21 26 66 167 0
21 -26 28 0
21 -26 -27 0
21 -167 28 0
21 -167 27 0
21 -66 68 0
21 -66 -67 0
21 -167 68 0
21 -167 67 0
21 26 70 168 0
21 -26 28 0
21 -26 -27 0
21 -168 28 0
21 -168 27 0
21 -70 72 0
21 -70 -71 0
21 -168 72 0
21 -168 71 0
21 26 74 169 0
21 -26 28 0
21 -26 -27 0
21 -169 28 0
21 -169 27 0
21 -74 76 0
21 -74 -75 0
21 -169 76 0
21 -169 75 0
21 26 78 170 0
21 -26 28 0
21 -26 -27 0
21 -170 28 0
21 -170 27 0
21 -78 80 0
21 -78 -79 0
21 -170 80 0
21 -170 79 0
21 30 42 171 0
21 -30 32 0
21 -30 -31 0
21 -171 32 0
21 -171 31 0
21 -42 44 0
21 -42 -43 0
21 -171 44 0
21 -171 43 0
21 30 46 172 0
21 -30 32 0
21 -30 -31 0
21 -172 32 0
21 -172 31 0
21 -46 48 0
21 -46 -47 0
21 -172 48 0
21 -172 47 0
21 30 50 173 0
21 -30 32 0
21 -30 -31 0
21 -173 32 0
21 -173 31 0
21 -50 52 0
21 -50 -51 0
21 -173 52 0
21 -173 51 0
21 30 54 174 0
21 -30 32 0
21 -30 -31 0
21 -174 32 0
21 -174 31 0
21 -54 56 0
21 -54 -55 0
21 -174 56 0
21 -174 55 0
21 30 58 175 0
21 -30 32 0
21 -30 -31 0
21 -175 32 0
21 -175 31 0
21 -58 60 0
21 -58 -59 0
21 -175 60 0
21 -175 59 0
21 30 62 176 0
21 -30 32 0
21 -30 -31 0
21 -176 32 0
21 -176 31 0
21 -62 64 0
21 -62 -63 0
21 -176 64 0
21 -176 63 0
21 30 66 177 0
21 -30 32 0
21 -30 -31 0
21 -177 32 0
21 -177 31 0
21 -66 68 0
21 -66 -67 0
21 -177 68 0
21 -177 67 0
21 30 70 178 0
21 -30 32 0
21 -30 -31 0
21 -178 32 0
21 -178 31 0
21 -70 72 0
21 -70 -71 0
21 -178 72 0
21 -178 71 0
21 30 74 179 0
21 -30 32 0
21 -30 -31 0
21 -179 32 0
21 -179 31 0
21 -74 76 0
21 -74 -75 0
21 -179 76 0
21 -179 75 0
21 30 78 180 0
21 -30 32 0
21 -30 -31 0
21 -180 32 0
21 -180 31 0
21 -78 80 0
21 -78 -79 0
21 -180 80 0
21 -180 79 0
21 34 42 181 0
21 -34 36 0
21 -34 -35 0
21 -181 36 0
21 -181 35 0
21 -42 44 0
21 -42 -43 0
21 -181 44 0
21 -181 43 0
21 34 46 182 0
21 -34 36 0
21 -34 -35 0
21 -182 36 0
21 -182 35 0
21 -46 48 0
21 -46 -47 0
21 -182 48 0
21 -182 47 0
21 34 50 183 0
21 -34 36 0
21 -34 -35 0
21 -183 36 0
21 -183 35 0
21 -50 52 0
21 -50 -51 0
21 -183 52 0
21 -183 51 0
21 34 54 184 0
21 -34 36 0
21 -34 -35 0
21 -184 36 0
21 -184 35 0
21 -54 56 0
21 -54 -55 0
21 -184 56 0
21 -184 55 0
21 34 58 185 0
21 -34 36 0
21 -34 -35 0
21 -185 36 0
21 -185 35 0
21 -58 60 0
21 -58 -59 0
21 -185 60 0
21 -185 59 0
21 34 62 186 0
21 -34 36 0
21 -34 -35 0
21 -186 36 0
21 -186 35 0
21 -62 64 0
21 -62 -63 0
21 -186 64 0
21 -186 63 0
21 34 66 187 0
21 -34 36 0
21 -34 -35 0
21 -187 36 0
21 -187 35 0
21 -66 68 0
21 -66 -67 0
21 -187 68 0
21 -187 67 0
21 34 70 188 0
21 -34 36 0
21 -34 -35 0
21 -188 36 0
21 -188 35 0
21 -70 72 0
21 -70 -71 0
21 -188 72 0
21 -188 71 0
21 34 74 189 0
21 -34 36 0
21 -34 -35 0
21 -189 36 0
21 -189 35 0
21 -74 76 0
21 -74 -75 0
21 -189 76 0
21 -189 75 0
21 34 78 190 0
21 -34 36 0
21 -34 -35 0
21 -190 36 0
21 -190 35 0
21 -78 80 0
21 -78 -79 0
21 -190 80 0
21 -190 79 0
21 38 42 191 0
21 -38 40 0
21 -38 -39 0
21 -191 40 0
21 -191 39 0
21 -42 44 0
21 -42 -43 0
21 -191 44 0
21 -191 43 0
21 38 46 192 0
21 -38 40 0
21 -38 -39 0
21 -192 40 0
21 -192 39 0
21 -46 48 0
21 -46 -47 0
21 -192 48 0
21 -192 47 0
21 38 50 193 0
21 -38 40 0
21 -38 -39 0
21 -193 40 0
21 -193 39 0
21 -50 52 0
21 -50 -51 0
21 -193 52 0
21 -193 51 0
21 38 54 194 0
21 -38 40 0
21 -38 -39 0
21 -194 40 0
21 -194 39 0
21 -54 56 0
21 -54 -55 0
21 -194 56 0
21 -194 55 0
21 38 58 195 0
21 -38 40 0
21 -38 -39 0
21 -195 40 0
21 -195 39 0
21 -58 60 0
21 -58 -59 0
21 -195 60 0
21 -195 59 0
21 38 62 196 0
21 -38 40 0
21 -38 -39 0
21 -196 40 0
21 -196 39 0
21 -62 64 0
21 -62 -63 0
21 -196 64 0
21 -196 63 0
21 38 66 197 0
21 -38 40 0
21 -38 -39 0
21 -197 40 0
21 -197 39 0
21 -66 68 0
21 -66 -67 0
21 -197 68 0
21 -197 67 0
21 38 70 198 0
21 -38 40 0
21 -38 -39 0
21 -198 40 0
21 -198 39 0
21 -70 72 0
21 -70 -71 0
21 -198 72 0
21 -198 71 0
21 38 74 199 0
21 -38 40 0
21 -38 -39 0
21 -199 40 0
21 -199 39 0
21 -74 76 0
21 -74 -75 0
21 -199 76 0
21 -199 75 0
21 38 78 200 0
21 -38 40 0
21 -38 -39 0
21 -200 40 0
21 -200 39 0
21 -78 80 0
21 -78 -79 0
21 -200 80 0
21 -200 79 0
1 -3 -4 0
1 -7 -8 0
1 -11 -12 0
1 -15 -16 0
1 -19 -20 0
1 -23 -24 0
1 -27 -28 0
1 -31 -32 0
1 -35 -36 0
1 -39 -40 0
1 -43 -44 0
1 -47 -48 0
1 -51 -52 0
1 -55 -56 0
1 -59 -60 0
1 -63 -64 0
1 -67 -68 0
1 -71 -72 0
1 -75 -76 0
1 -79 -80 0
